20216.0
7,15,16,387,1518,1963,901,318,1606,705,272,1861,46,668,838,489,147,1273,343,1584,938,1198,1354,997,425,1695,607,1170,1540,1187,1681,423,1441,242,1472,475,1386,758,379,1644,20,1121,113,655,385,1978,375,60,1834,675,537,1599,1690,141,757,1731,842,1899,855,946,233,1464,1314,169,1698,538,1451,323,1385,1196,1206,1984,659,271,1733,268,432,988,799,1406,1351,1835,767,883,1471,1657,29,1159,1261,583,1660,1605,1615,12,637,833,524,490,694,1193,852,895,1267,1146
